15 40
25
7 12 6 0
7 7 8 17
1 7 11 33
1 5 0 9
2 3 13 0
2 6 13 34
2 7 9 33
2 5 1 9
1 3 5 9
1 6 12 34
6 12 3 28
6 9 0 0
2 12 3 16
2 7 3 9
3 10 12 24
1 4 8 24
1 5 8 12
3 16 0 14
3 5 9 12
2 4 13 8
2 5 13 3
3 10 0 30
3 9 9 24
3 16 5 12
3 5 12 12
